param desirable_knot_number := 40;
param obnoxious_knot_number := 0;
param approx_level_integer := 4 ;
param depot_number := 5 ;
param a_coord:=1 248 2 215 3 446 4 120 5 64 6 181 7 807 8 973 9 119 10 627 11 768 12 472 13 895 14 678 15 102 16 620 17 547 18 50 19 662 20 748 21 816 22 854 23 347 24 280 25 979 26 665 27 967 28 255 29 202 30 419 31 126 32 323 33 678 34 748 35 982 36 526 37 691 38 17 39 868 40 268 ;
param b_coord:=1 358 2 683 3 698 4 710 5 646 6 278 7 676 8 620 9 277 10 19 11 726 12 773 13 568 14 690 15 702 16 5 17 225 18 365 19 666 20 129 21 32 22 551 23 544 24 469 25 146 26 654 27 44 28 276 29 723 30 743 31 535 32 637 33 236 34 432 35 416 36 37 37 126 38 251 39 343 40 577 ;
param q:= 1 1.4142135623730951 2 1.8477590650225735 3 1.9615705608064609 4 1.9903694533443939  ;


